20	5
0	9	6	5	4	7	2	3	9	8	1
1	1	18
2	1	17
3	2	12	13
4	1	12
5	1	16
6	0
7	2	20	21
8	2	10	15
9	1	15
10	0
11	1	12
12	1	18
13	1	19
14	1	11
15	1	14
16	2	10	13
17	1	21
18	1	21
19	1	21
20	1	21
21	0
0	0	0	0	0	0	0
1	7	0	0	0	2	1
2	3	0	2	0	4	0
3	10	0	0	2	0	3
4	3	2	1	1	5	1
5	3	0	5	3	2	0
6	3	5	0	5	0	0
7	9	4	0	0	5	3
8	2	1	0	0	0	4
9	8	1	0	2	0	0
10	2	0	0	0	0	5
11	3	0	4	1	4	1
12	9	4	0	0	3	1
13	1	5	2	0	2	0
14	6	5	0	1	0	0
15	1	0	2	1	0	0
16	3	2	0	5	0	0
17	3	0	5	5	1	0
18	7	1	0	4	5	4
19	5	0	0	4	0	0
20	4	0	1	0	1	0
21	0	0	0	0	0	0
5	5	5	5	5
